GeneratedTests/Random_9/Random_9_8.tsp
NAME: Random_9_8
TYPE: TSP
DIMENSION: 9
EDGE_WEIGHT_TYPE: EUC_2D
NODE_COORD_SECTION
1 19.532942 17.107973
2 23.849646 23.156157
3 0.61016124 10.657816
4 4.8441935 3.5162377
5 11.798888 10.955857
6 26.832436 8.159209
7 5.385712 3.6519165
8 10.471317 21.338509
9 25.964031 10.296337
EOF
