GeneratedTests/Random_9/Random_9_8.txt
NAME: Random_9_8
TYPE: TSP
DIMENSION: 9
EDGE_WEIGHT_TYPE: EUC_2D
NODE_COORD_SECTION
1 16.866325 16.509964
2 17.254232 19.692242
3 18.678125 19.0702
4 21.052433 14.712839
5 6.8956985 8.177704
6 4.6514173 0.93472034
7 21.679436 4.2045155
8 16.954962 7.00576
9 20.557121 16.365307
EOF
